c File: instances/32_0.40_2.col
c
c Description: Random graph of size 32 vertices and P(0.39999999999999997) of edges between any two vertices.
p col 32 496
e 1 5
e 1 6
e 1 11
e 1 13
e 1 15
e 1 16
e 1 17
e 1 20
e 1 25
e 1 27
e 1 28
e 2 5
e 2 7
e 2 10
e 2 12
e 2 13
e 2 18
e 2 19
e 2 21
e 2 22
e 2 25
e 3 8
e 3 9
e 3 12
e 3 14
e 3 17
e 3 20
e 3 27
e 4 6
e 4 13
e 4 18
e 4 20
e 4 22
e 4 26
e 4 31
e 4 32
e 5 7
e 5 13
e 5 15
e 5 18
e 5 19
e 5 23
e 5 24
e 5 25
e 5 28
e 5 29
e 5 31
e 6 11
e 6 12
e 6 16
e 6 19
e 6 20
e 6 21
e 6 27
e 6 28
e 6 29
e 6 32
e 7 9
e 7 10
e 7 11
e 7 12
e 7 14
e 7 17
e 7 19
e 7 20
e 7 21
e 7 22
e 7 24
e 7 26
e 7 30
e 7 31
e 8 9
e 8 11
e 8 12
e 8 14
e 8 15
e 8 16
e 8 22
e 8 26
e 8 29
e 8 30
e 9 11
e 9 13
e 9 17
e 9 19
e 9 20
e 9 21
e 9 22
e 9 26
e 9 28
e 9 29
e 9 30
e 10 11
e 10 12
e 10 15
e 10 18
e 10 20
e 10 21
e 10 22
e 10 25
e 10 27
e 10 29
e 11 15
e 11 16
e 11 19
e 11 21
e 11 23
e 11 24
e 11 27
e 11 30
e 12 13
e 12 16
e 12 20
e 12 25
e 12 27
e 13 16
e 13 17
e 13 18
e 13 20
e 13 21
e 13 23
e 13 25
e 13 27
e 13 28
e 13 30
e 13 31
e 14 18
e 14 19
e 14 21
e 14 23
e 14 26
e 14 27
e 14 28
e 14 30
e 15 20
e 15 21
e 15 22
e 15 27
e 15 31
e 16 18
e 16 19
e 16 22
e 16 23
e 16 24
e 16 26
e 16 27
e 16 29
e 16 31
e 16 32
e 17 21
e 17 23
e 17 25
e 17 27
e 17 31
e 18 19
e 18 20
e 18 22
e 18 24
e 18 26
e 18 27
e 18 28
e 19 20
e 19 21
e 19 23
e 19 24
e 19 29
e 19 30
e 19 32
e 20 25
e 20 26
e 20 27
e 20 29
e 20 30
e 21 23
e 21 25
e 21 26
e 21 27
e 21 29
e 22 24
e 22 27
e 23 27
e 23 28
e 23 32
e 24 27
e 24 28
e 24 31
e 24 32
e 25 28
e 27 29
e 29 31
e 30 31
e 31 32